NAME: TDVRP_2
TYPE: TSP
COMMENT: 7 locations in Saratov (one of them is a store where goods are delivered from)
DIMENSION: 7
EDGE_WEIGHT_TYPE: EXPLICIT
EDGE_WEIGHT_FORMAT: UPPER_ROW 
DISPLAY_DATA_TYPE: TWOD_DISPLAY
EDGE_WEIGHT_SECTION
30 26 45 49 68 90
19 19 19 38 19
26 26 49 8 
12 30 19
23 23
45

DISPLAY_DATA_SECTION
   1 51.50036805 45.95278283698718
   2 51.5431122  46.02158101858003
   3 51.5319399  45.97551171684958
   4 51.568369   45.977968
   5 51.570415249999996 46.00630434999999
   6 51.60037869999999  45.999039852824744
   7 51.5376812  45.983260850985005
EOF
